84 48 86 15 90 28 78 1 56 65 97 2 13 17 21 24 68 81 89 33 75 27 94 45 9 49 64 76 14 19 57 74 66 46 58 67 98 71 32 92 54 44 87 53 26 62 85 70 35 34 50 79 80 88 47 82 16 69 11 55 52 20 37 38 8 60 41 63 18 29 43 77 25 40 61 12 4 30 95 59 42 10 73 31 36 0 93 91 96 23 6 22 3 72 5 7 39 83 99 51